NAME bilinear
ROWS
 N  OBJ
 E  ∑q=1  
 G  q_0>=0  
 G  q_1>=0  
 G  q_2>=0  
 G  q_3>=0  
 G  q_4>=0  
 G  q_5>=0  
 G  q_6>=0  
 G  q_7>=0  
 G  q_8>=0  
 G  q_9>=0  
 G  q_10>=0 
 G  q_11>=0 
 G  q_12>=0 
 G  q_13>=0 
 G  q_14>=0 
 G  q_15>=0 
 G  q_16>=0 
 G  q_17>=0 
 G  q_18>=0 
 G  q_19>=0 
 G  q_20>=0 
 G  q_21>=0 
 G  q_22>=0 
 G  q_23>=0 
 G  j=1     
 G  j=2     
 G  j=3     
 G  j=4     
COLUMNS
    a_({1},1)  OBJ       1
    a_({1,2},1)  OBJ       1
    a_({1,2},2)  OBJ       1
    a_({1,2,3},1)  OBJ       1
    a_({1,2,3},2)  OBJ       1
    a_({1,2,3},3)  OBJ       1
    a_({1,2,4},1)  OBJ       1
    a_({1,2,4},2)  OBJ       1
    a_({1,2,4},4)  OBJ       1
    a_({1,3},1)  OBJ       1
    a_({1,3},3)  OBJ       1
    a_({1,3,4},1)  OBJ       1
    a_({1,3,4},3)  OBJ       1
    a_({1,3,4},4)  OBJ       1
    a_({1,4},1)  OBJ       1
    a_({1,4},4)  OBJ       1
    a_({2},2)  OBJ       1
    a_({2,3},2)  OBJ       1
    a_({2,3},3)  OBJ       1
    a_({2,3,4},2)  OBJ       1
    a_({2,3,4},3)  OBJ       1
    a_({2,3,4},4)  OBJ       1
    a_({2,4},2)  OBJ       1
    a_({2,4},4)  OBJ       1
    a_({3},3)  OBJ       1
    a_({3,4},3)  OBJ       1
    a_({3,4},4)  OBJ       1
    a_({4},4)  OBJ       1
    q_{1,2,3,4}  ∑q=1    1
    q_{1,2,3,4}  q_0>=0    1
    q_{1,2,4,3}  ∑q=1    1
    q_{1,2,4,3}  q_1>=0    1
    q_{1,3,2,4}  ∑q=1    1
    q_{1,3,2,4}  q_2>=0    1
    q_{1,3,4,2}  ∑q=1    1
    q_{1,3,4,2}  q_3>=0    1
    q_{1,4,2,3}  ∑q=1    1
    q_{1,4,2,3}  q_4>=0    1
    q_{1,4,3,2}  ∑q=1    1
    q_{1,4,3,2}  q_5>=0    1
    q_{2,1,3,4}  ∑q=1    1
    q_{2,1,3,4}  q_6>=0    1
    q_{2,1,4,3}  ∑q=1    1
    q_{2,1,4,3}  q_7>=0    1
    q_{2,3,1,4}  ∑q=1    1
    q_{2,3,1,4}  q_8>=0    1
    q_{2,3,4,1}  ∑q=1    1
    q_{2,3,4,1}  q_9>=0    1
    q_{2,4,1,3}  ∑q=1    1
    q_{2,4,1,3}  q_10>=0   1
    q_{2,4,3,1}  ∑q=1    1
    q_{2,4,3,1}  q_11>=0   1
    q_{3,1,2,4}  ∑q=1    1
    q_{3,1,2,4}  q_12>=0   1
    q_{3,1,4,2}  ∑q=1    1
    q_{3,1,4,2}  q_13>=0   1
    q_{3,2,1,4}  ∑q=1    1
    q_{3,2,1,4}  q_14>=0   1
    q_{3,2,4,1}  ∑q=1    1
    q_{3,2,4,1}  q_15>=0   1
    q_{3,4,1,2}  ∑q=1    1
    q_{3,4,1,2}  q_16>=0   1
    q_{3,4,2,1}  ∑q=1    1
    q_{3,4,2,1}  q_17>=0   1
    q_{4,1,2,3}  ∑q=1    1
    q_{4,1,2,3}  q_18>=0   1
    q_{4,1,3,2}  ∑q=1    1
    q_{4,1,3,2}  q_19>=0   1
    q_{4,2,1,3}  ∑q=1    1
    q_{4,2,1,3}  q_20>=0   1
    q_{4,2,3,1}  ∑q=1    1
    q_{4,2,3,1}  q_21>=0   1
    q_{4,3,1,2}  ∑q=1    1
    q_{4,3,1,2}  q_22>=0   1
    q_{4,3,2,1}  ∑q=1    1
    q_{4,3,2,1}  q_23>=0   1
RHS
    RHS1      ∑q=1    1
    RHS1      j=1       1
    RHS1      j=2       1
    RHS1      j=3       1
    RHS1      j=4       1
BOUNDS
QUADOBJ
    a_({1},1)  q_{1,2,3,4}  -1
    a_({1},1)  q_{1,2,4,3}  -1
    a_({1},1)  q_{1,3,2,4}  -1
    a_({1},1)  q_{1,3,4,2}  -1
    a_({1},1)  q_{1,4,2,3}  -1
    a_({1},1)  q_{1,4,3,2}  -1
    a_({1,2},1)  q_{1,2,3,4}  -1
    a_({1,2},1)  q_{1,2,4,3}  -1
    a_({1,2},1)  q_{1,3,2,4}  -1
    a_({1,2},1)  q_{1,3,4,2}  -1
    a_({1,2},1)  q_{1,4,2,3}  -1
    a_({1,2},1)  q_{1,4,3,2}  -1
    a_({1,2},1)  q_{2,1,3,4}  -1
    a_({1,2},1)  q_{2,1,4,3}  -1
    a_({1,2},2)  q_{1,2,3,4}  -1
    a_({1,2},2)  q_{1,2,4,3}  -1
    a_({1,2},2)  q_{2,1,3,4}  -1
    a_({1,2},2)  q_{2,1,4,3}  -1
    a_({1,2},2)  q_{2,3,1,4}  -1
    a_({1,2},2)  q_{2,3,4,1}  -1
    a_({1,2},2)  q_{2,4,1,3}  -1
    a_({1,2},2)  q_{2,4,3,1}  -1
    a_({1,2,3},1)  q_{1,2,3,4}  -1
    a_({1,2,3},1)  q_{1,2,4,3}  -1
    a_({1,2,3},1)  q_{1,3,2,4}  -1
    a_({1,2,3},1)  q_{1,3,4,2}  -1
    a_({1,2,3},1)  q_{1,4,2,3}  -1
    a_({1,2,3},1)  q_{1,4,3,2}  -1
    a_({1,2,3},1)  q_{2,1,3,4}  -1
    a_({1,2,3},1)  q_{2,1,4,3}  -1
    a_({1,2,3},1)  q_{2,3,1,4}  -1
    a_({1,2,3},1)  q_{3,1,2,4}  -1
    a_({1,2,3},1)  q_{3,1,4,2}  -1
    a_({1,2,3},1)  q_{3,2,1,4}  -1
    a_({1,2,3},2)  q_{1,2,3,4}  -1
    a_({1,2,3},2)  q_{1,2,4,3}  -1
    a_({1,2,3},2)  q_{1,3,2,4}  -1
    a_({1,2,3},2)  q_{2,1,3,4}  -1
    a_({1,2,3},2)  q_{2,1,4,3}  -1
    a_({1,2,3},2)  q_{2,3,1,4}  -1
    a_({1,2,3},2)  q_{2,3,4,1}  -1
    a_({1,2,3},2)  q_{2,4,1,3}  -1
    a_({1,2,3},2)  q_{2,4,3,1}  -1
    a_({1,2,3},2)  q_{3,1,2,4}  -1
    a_({1,2,3},2)  q_{3,2,1,4}  -1
    a_({1,2,3},2)  q_{3,2,4,1}  -1
    a_({1,2,3},3)  q_{1,2,3,4}  -1
    a_({1,2,3},3)  q_{1,3,2,4}  -1
    a_({1,2,3},3)  q_{1,3,4,2}  -1
    a_({1,2,3},3)  q_{2,1,3,4}  -1
    a_({1,2,3},3)  q_{2,3,1,4}  -1
    a_({1,2,3},3)  q_{2,3,4,1}  -1
    a_({1,2,3},3)  q_{3,1,2,4}  -1
    a_({1,2,3},3)  q_{3,1,4,2}  -1
    a_({1,2,3},3)  q_{3,2,1,4}  -1
    a_({1,2,3},3)  q_{3,2,4,1}  -1
    a_({1,2,3},3)  q_{3,4,1,2}  -1
    a_({1,2,3},3)  q_{3,4,2,1}  -1
    a_({1,2,4},1)  q_{1,2,3,4}  -1
    a_({1,2,4},1)  q_{1,2,4,3}  -1
    a_({1,2,4},1)  q_{1,3,2,4}  -1
    a_({1,2,4},1)  q_{1,3,4,2}  -1
    a_({1,2,4},1)  q_{1,4,2,3}  -1
    a_({1,2,4},1)  q_{1,4,3,2}  -1
    a_({1,2,4},1)  q_{2,1,3,4}  -1
    a_({1,2,4},1)  q_{2,1,4,3}  -1
    a_({1,2,4},1)  q_{2,4,1,3}  -1
    a_({1,2,4},1)  q_{4,1,2,3}  -1
    a_({1,2,4},1)  q_{4,1,3,2}  -1
    a_({1,2,4},1)  q_{4,2,1,3}  -1
    a_({1,2,4},2)  q_{1,2,3,4}  -1
    a_({1,2,4},2)  q_{1,2,4,3}  -1
    a_({1,2,4},2)  q_{1,4,2,3}  -1
    a_({1,2,4},2)  q_{2,1,3,4}  -1
    a_({1,2,4},2)  q_{2,1,4,3}  -1
    a_({1,2,4},2)  q_{2,3,1,4}  -1
    a_({1,2,4},2)  q_{2,3,4,1}  -1
    a_({1,2,4},2)  q_{2,4,1,3}  -1
    a_({1,2,4},2)  q_{2,4,3,1}  -1
    a_({1,2,4},2)  q_{4,1,2,3}  -1
    a_({1,2,4},2)  q_{4,2,1,3}  -1
    a_({1,2,4},2)  q_{4,2,3,1}  -1
    a_({1,2,4},4)  q_{1,2,4,3}  -1
    a_({1,2,4},4)  q_{1,4,2,3}  -1
    a_({1,2,4},4)  q_{1,4,3,2}  -1
    a_({1,2,4},4)  q_{2,1,4,3}  -1
    a_({1,2,4},4)  q_{2,4,1,3}  -1
    a_({1,2,4},4)  q_{2,4,3,1}  -1
    a_({1,2,4},4)  q_{4,1,2,3}  -1
    a_({1,2,4},4)  q_{4,1,3,2}  -1
    a_({1,2,4},4)  q_{4,2,1,3}  -1
    a_({1,2,4},4)  q_{4,2,3,1}  -1
    a_({1,2,4},4)  q_{4,3,1,2}  -1
    a_({1,2,4},4)  q_{4,3,2,1}  -1
    a_({1,3},1)  q_{1,2,3,4}  -1
    a_({1,3},1)  q_{1,2,4,3}  -1
    a_({1,3},1)  q_{1,3,2,4}  -1
    a_({1,3},1)  q_{1,3,4,2}  -1
    a_({1,3},1)  q_{1,4,2,3}  -1
    a_({1,3},1)  q_{1,4,3,2}  -1
    a_({1,3},1)  q_{3,1,2,4}  -1
    a_({1,3},1)  q_{3,1,4,2}  -1
    a_({1,3},3)  q_{1,3,2,4}  -1
    a_({1,3},3)  q_{1,3,4,2}  -1
    a_({1,3},3)  q_{3,1,2,4}  -1
    a_({1,3},3)  q_{3,1,4,2}  -1
    a_({1,3},3)  q_{3,2,1,4}  -1
    a_({1,3},3)  q_{3,2,4,1}  -1
    a_({1,3},3)  q_{3,4,1,2}  -1
    a_({1,3},3)  q_{3,4,2,1}  -1
    a_({1,3,4},1)  q_{1,2,3,4}  -1
    a_({1,3,4},1)  q_{1,2,4,3}  -1
    a_({1,3,4},1)  q_{1,3,2,4}  -1
    a_({1,3,4},1)  q_{1,3,4,2}  -1
    a_({1,3,4},1)  q_{1,4,2,3}  -1
    a_({1,3,4},1)  q_{1,4,3,2}  -1
    a_({1,3,4},1)  q_{3,1,2,4}  -1
    a_({1,3,4},1)  q_{3,1,4,2}  -1
    a_({1,3,4},1)  q_{3,4,1,2}  -1
    a_({1,3,4},1)  q_{4,1,2,3}  -1
    a_({1,3,4},1)  q_{4,1,3,2}  -1
    a_({1,3,4},1)  q_{4,3,1,2}  -1
    a_({1,3,4},3)  q_{1,3,2,4}  -1
    a_({1,3,4},3)  q_{1,3,4,2}  -1
    a_({1,3,4},3)  q_{1,4,3,2}  -1
    a_({1,3,4},3)  q_{3,1,2,4}  -1
    a_({1,3,4},3)  q_{3,1,4,2}  -1
    a_({1,3,4},3)  q_{3,2,1,4}  -1
    a_({1,3,4},3)  q_{3,2,4,1}  -1
    a_({1,3,4},3)  q_{3,4,1,2}  -1
    a_({1,3,4},3)  q_{3,4,2,1}  -1
    a_({1,3,4},3)  q_{4,1,3,2}  -1
    a_({1,3,4},3)  q_{4,3,1,2}  -1
    a_({1,3,4},3)  q_{4,3,2,1}  -1
    a_({1,3,4},4)  q_{1,3,4,2}  -1
    a_({1,3,4},4)  q_{1,4,2,3}  -1
    a_({1,3,4},4)  q_{1,4,3,2}  -1
    a_({1,3,4},4)  q_{3,1,4,2}  -1
    a_({1,3,4},4)  q_{3,4,1,2}  -1
    a_({1,3,4},4)  q_{3,4,2,1}  -1
    a_({1,3,4},4)  q_{4,1,2,3}  -1
    a_({1,3,4},4)  q_{4,1,3,2}  -1
    a_({1,3,4},4)  q_{4,2,1,3}  -1
    a_({1,3,4},4)  q_{4,2,3,1}  -1
    a_({1,3,4},4)  q_{4,3,1,2}  -1
    a_({1,3,4},4)  q_{4,3,2,1}  -1
    a_({1,4},1)  q_{1,2,3,4}  -1
    a_({1,4},1)  q_{1,2,4,3}  -1
    a_({1,4},1)  q_{1,3,2,4}  -1
    a_({1,4},1)  q_{1,3,4,2}  -1
    a_({1,4},1)  q_{1,4,2,3}  -1
    a_({1,4},1)  q_{1,4,3,2}  -1
    a_({1,4},1)  q_{4,1,2,3}  -1
    a_({1,4},1)  q_{4,1,3,2}  -1
    a_({1,4},4)  q_{1,4,2,3}  -1
    a_({1,4},4)  q_{1,4,3,2}  -1
    a_({1,4},4)  q_{4,1,2,3}  -1
    a_({1,4},4)  q_{4,1,3,2}  -1
    a_({1,4},4)  q_{4,2,1,3}  -1
    a_({1,4},4)  q_{4,2,3,1}  -1
    a_({1,4},4)  q_{4,3,1,2}  -1
    a_({1,4},4)  q_{4,3,2,1}  -1
    a_({2},2)  q_{2,1,3,4}  -1
    a_({2},2)  q_{2,1,4,3}  -1
    a_({2},2)  q_{2,3,1,4}  -1
    a_({2},2)  q_{2,3,4,1}  -1
    a_({2},2)  q_{2,4,1,3}  -1
    a_({2},2)  q_{2,4,3,1}  -1
    a_({2,3},2)  q_{2,1,3,4}  -1
    a_({2,3},2)  q_{2,1,4,3}  -1
    a_({2,3},2)  q_{2,3,1,4}  -1
    a_({2,3},2)  q_{2,3,4,1}  -1
    a_({2,3},2)  q_{2,4,1,3}  -1
    a_({2,3},2)  q_{2,4,3,1}  -1
    a_({2,3},2)  q_{3,2,1,4}  -1
    a_({2,3},2)  q_{3,2,4,1}  -1
    a_({2,3},3)  q_{2,3,1,4}  -1
    a_({2,3},3)  q_{2,3,4,1}  -1
    a_({2,3},3)  q_{3,1,2,4}  -1
    a_({2,3},3)  q_{3,1,4,2}  -1
    a_({2,3},3)  q_{3,2,1,4}  -1
    a_({2,3},3)  q_{3,2,4,1}  -1
    a_({2,3},3)  q_{3,4,1,2}  -1
    a_({2,3},3)  q_{3,4,2,1}  -1
    a_({2,3,4},2)  q_{2,1,3,4}  -1
    a_({2,3,4},2)  q_{2,1,4,3}  -1
    a_({2,3,4},2)  q_{2,3,1,4}  -1
    a_({2,3,4},2)  q_{2,3,4,1}  -1
    a_({2,3,4},2)  q_{2,4,1,3}  -1
    a_({2,3,4},2)  q_{2,4,3,1}  -1
    a_({2,3,4},2)  q_{3,2,1,4}  -1
    a_({2,3,4},2)  q_{3,2,4,1}  -1
    a_({2,3,4},2)  q_{3,4,2,1}  -1
    a_({2,3,4},2)  q_{4,2,1,3}  -1
    a_({2,3,4},2)  q_{4,2,3,1}  -1
    a_({2,3,4},2)  q_{4,3,2,1}  -1
    a_({2,3,4},3)  q_{2,3,1,4}  -1
    a_({2,3,4},3)  q_{2,3,4,1}  -1
    a_({2,3,4},3)  q_{2,4,3,1}  -1
    a_({2,3,4},3)  q_{3,1,2,4}  -1
    a_({2,3,4},3)  q_{3,1,4,2}  -1
    a_({2,3,4},3)  q_{3,2,1,4}  -1
    a_({2,3,4},3)  q_{3,2,4,1}  -1
    a_({2,3,4},3)  q_{3,4,1,2}  -1
    a_({2,3,4},3)  q_{3,4,2,1}  -1
    a_({2,3,4},3)  q_{4,2,3,1}  -1
    a_({2,3,4},3)  q_{4,3,1,2}  -1
    a_({2,3,4},3)  q_{4,3,2,1}  -1
    a_({2,3,4},4)  q_{2,3,4,1}  -1
    a_({2,3,4},4)  q_{2,4,1,3}  -1
    a_({2,3,4},4)  q_{2,4,3,1}  -1
    a_({2,3,4},4)  q_{3,2,4,1}  -1
    a_({2,3,4},4)  q_{3,4,1,2}  -1
    a_({2,3,4},4)  q_{3,4,2,1}  -1
    a_({2,3,4},4)  q_{4,1,2,3}  -1
    a_({2,3,4},4)  q_{4,1,3,2}  -1
    a_({2,3,4},4)  q_{4,2,1,3}  -1
    a_({2,3,4},4)  q_{4,2,3,1}  -1
    a_({2,3,4},4)  q_{4,3,1,2}  -1
    a_({2,3,4},4)  q_{4,3,2,1}  -1
    a_({2,4},2)  q_{2,1,3,4}  -1
    a_({2,4},2)  q_{2,1,4,3}  -1
    a_({2,4},2)  q_{2,3,1,4}  -1
    a_({2,4},2)  q_{2,3,4,1}  -1
    a_({2,4},2)  q_{2,4,1,3}  -1
    a_({2,4},2)  q_{2,4,3,1}  -1
    a_({2,4},2)  q_{4,2,1,3}  -1
    a_({2,4},2)  q_{4,2,3,1}  -1
    a_({2,4},4)  q_{2,4,1,3}  -1
    a_({2,4},4)  q_{2,4,3,1}  -1
    a_({2,4},4)  q_{4,1,2,3}  -1
    a_({2,4},4)  q_{4,1,3,2}  -1
    a_({2,4},4)  q_{4,2,1,3}  -1
    a_({2,4},4)  q_{4,2,3,1}  -1
    a_({2,4},4)  q_{4,3,1,2}  -1
    a_({2,4},4)  q_{4,3,2,1}  -1
    a_({3},3)  q_{3,1,2,4}  -1
    a_({3},3)  q_{3,1,4,2}  -1
    a_({3},3)  q_{3,2,1,4}  -1
    a_({3},3)  q_{3,2,4,1}  -1
    a_({3},3)  q_{3,4,1,2}  -1
    a_({3},3)  q_{3,4,2,1}  -1
    a_({3,4},3)  q_{3,1,2,4}  -1
    a_({3,4},3)  q_{3,1,4,2}  -1
    a_({3,4},3)  q_{3,2,1,4}  -1
    a_({3,4},3)  q_{3,2,4,1}  -1
    a_({3,4},3)  q_{3,4,1,2}  -1
    a_({3,4},3)  q_{3,4,2,1}  -1
    a_({3,4},3)  q_{4,3,1,2}  -1
    a_({3,4},3)  q_{4,3,2,1}  -1
    a_({3,4},4)  q_{3,4,1,2}  -1
    a_({3,4},4)  q_{3,4,2,1}  -1
    a_({3,4},4)  q_{4,1,2,3}  -1
    a_({3,4},4)  q_{4,1,3,2}  -1
    a_({3,4},4)  q_{4,2,1,3}  -1
    a_({3,4},4)  q_{4,2,3,1}  -1
    a_({3,4},4)  q_{4,3,1,2}  -1
    a_({3,4},4)  q_{4,3,2,1}  -1
    a_({4},4)  q_{4,1,2,3}  -1
    a_({4},4)  q_{4,1,3,2}  -1
    a_({4},4)  q_{4,2,1,3}  -1
    a_({4},4)  q_{4,2,3,1}  -1
    a_({4},4)  q_{4,3,1,2}  -1
    a_({4},4)  q_{4,3,2,1}  -1
QCMATRIX   j=1     
    a_({2},2)  q_{2,1,3,4}  0.5
    q_{2,1,3,4}  a_({2},2)  0.5
    a_({2},2)  q_{2,1,4,3}  0.5
    q_{2,1,4,3}  a_({2},2)  0.5
    a_({2},2)  q_{2,3,1,4}  0.5
    q_{2,3,1,4}  a_({2},2)  0.5
    a_({2},2)  q_{2,3,4,1}  0.5
    q_{2,3,4,1}  a_({2},2)  0.5
    a_({2},2)  q_{2,4,1,3}  0.5
    q_{2,4,1,3}  a_({2},2)  0.5
    a_({2},2)  q_{2,4,3,1}  0.5
    q_{2,4,3,1}  a_({2},2)  0.5
    a_({2},2)  q_{3,2,1,4}  0.5
    q_{3,2,1,4}  a_({2},2)  0.5
    a_({2},2)  q_{3,2,4,1}  0.5
    q_{3,2,4,1}  a_({2},2)  0.5
    a_({2},2)  q_{3,4,2,1}  0.5
    q_{3,4,2,1}  a_({2},2)  0.5
    a_({2},2)  q_{4,2,1,3}  0.5
    q_{4,2,1,3}  a_({2},2)  0.5
    a_({2},2)  q_{4,2,3,1}  0.5
    q_{4,2,3,1}  a_({2},2)  0.5
    a_({2},2)  q_{4,3,2,1}  0.5
    q_{4,3,2,1}  a_({2},2)  0.5
    a_({2,3},2)  q_{2,3,1,4}  0.5
    q_{2,3,1,4}  a_({2,3},2)  0.5
    a_({2,3},2)  q_{2,3,4,1}  0.5
    q_{2,3,4,1}  a_({2,3},2)  0.5
    a_({2,3},2)  q_{2,4,3,1}  0.5
    q_{2,4,3,1}  a_({2,3},2)  0.5
    a_({2,3},2)  q_{3,2,1,4}  0.5
    q_{3,2,1,4}  a_({2,3},2)  0.5
    a_({2,3},2)  q_{3,2,4,1}  0.5
    q_{3,2,4,1}  a_({2,3},2)  0.5
    a_({2,3},2)  q_{3,4,2,1}  0.5
    q_{3,4,2,1}  a_({2,3},2)  0.5
    a_({2,3},2)  q_{4,2,3,1}  0.5
    q_{4,2,3,1}  a_({2,3},2)  0.5
    a_({2,3},2)  q_{4,3,2,1}  0.5
    q_{4,3,2,1}  a_({2,3},2)  0.5
    a_({2,3},3)  q_{2,3,1,4}  0.5
    q_{2,3,1,4}  a_({2,3},3)  0.5
    a_({2,3},3)  q_{2,3,4,1}  0.5
    q_{2,3,4,1}  a_({2,3},3)  0.5
    a_({2,3},3)  q_{2,4,3,1}  0.5
    q_{2,4,3,1}  a_({2,3},3)  0.5
    a_({2,3},3)  q_{3,2,1,4}  0.5
    q_{3,2,1,4}  a_({2,3},3)  0.5
    a_({2,3},3)  q_{3,2,4,1}  0.5
    q_{3,2,4,1}  a_({2,3},3)  0.5
    a_({2,3},3)  q_{3,4,2,1}  0.5
    q_{3,4,2,1}  a_({2,3},3)  0.5
    a_({2,3},3)  q_{4,2,3,1}  0.5
    q_{4,2,3,1}  a_({2,3},3)  0.5
    a_({2,3},3)  q_{4,3,2,1}  0.5
    q_{4,3,2,1}  a_({2,3},3)  0.5
    a_({2,3,4},2)  q_{2,3,4,1}  0.5
    q_{2,3,4,1}  a_({2,3,4},2)  0.5
    a_({2,3,4},2)  q_{2,4,3,1}  0.5
    q_{2,4,3,1}  a_({2,3,4},2)  0.5
    a_({2,3,4},2)  q_{3,2,4,1}  0.5
    q_{3,2,4,1}  a_({2,3,4},2)  0.5
    a_({2,3,4},2)  q_{3,4,2,1}  0.5
    q_{3,4,2,1}  a_({2,3,4},2)  0.5
    a_({2,3,4},2)  q_{4,2,3,1}  0.5
    q_{4,2,3,1}  a_({2,3,4},2)  0.5
    a_({2,3,4},2)  q_{4,3,2,1}  0.5
    q_{4,3,2,1}  a_({2,3,4},2)  0.5
    a_({2,3,4},3)  q_{2,3,4,1}  0.5
    q_{2,3,4,1}  a_({2,3,4},3)  0.5
    a_({2,3,4},3)  q_{2,4,3,1}  0.5
    q_{2,4,3,1}  a_({2,3,4},3)  0.5
    a_({2,3,4},3)  q_{3,2,4,1}  0.5
    q_{3,2,4,1}  a_({2,3,4},3)  0.5
    a_({2,3,4},3)  q_{3,4,2,1}  0.5
    q_{3,4,2,1}  a_({2,3,4},3)  0.5
    a_({2,3,4},3)  q_{4,2,3,1}  0.5
    q_{4,2,3,1}  a_({2,3,4},3)  0.5
    a_({2,3,4},3)  q_{4,3,2,1}  0.5
    q_{4,3,2,1}  a_({2,3,4},3)  0.5
    a_({2,3,4},4)  q_{2,3,4,1}  0.5
    q_{2,3,4,1}  a_({2,3,4},4)  0.5
    a_({2,3,4},4)  q_{2,4,3,1}  0.5
    q_{2,4,3,1}  a_({2,3,4},4)  0.5
    a_({2,3,4},4)  q_{3,2,4,1}  0.5
    q_{3,2,4,1}  a_({2,3,4},4)  0.5
    a_({2,3,4},4)  q_{3,4,2,1}  0.5
    q_{3,4,2,1}  a_({2,3,4},4)  0.5
    a_({2,3,4},4)  q_{4,2,3,1}  0.5
    q_{4,2,3,1}  a_({2,3,4},4)  0.5
    a_({2,3,4},4)  q_{4,3,2,1}  0.5
    q_{4,3,2,1}  a_({2,3,4},4)  0.5
    a_({2,4},2)  q_{2,3,4,1}  0.5
    q_{2,3,4,1}  a_({2,4},2)  0.5
    a_({2,4},2)  q_{2,4,1,3}  0.5
    q_{2,4,1,3}  a_({2,4},2)  0.5
    a_({2,4},2)  q_{2,4,3,1}  0.5
    q_{2,4,3,1}  a_({2,4},2)  0.5
    a_({2,4},2)  q_{3,2,4,1}  0.5
    q_{3,2,4,1}  a_({2,4},2)  0.5
    a_({2,4},2)  q_{3,4,2,1}  0.5
    q_{3,4,2,1}  a_({2,4},2)  0.5
    a_({2,4},2)  q_{4,2,1,3}  0.5
    q_{4,2,1,3}  a_({2,4},2)  0.5
    a_({2,4},2)  q_{4,2,3,1}  0.5
    q_{4,2,3,1}  a_({2,4},2)  0.5
    a_({2,4},2)  q_{4,3,2,1}  0.5
    q_{4,3,2,1}  a_({2,4},2)  0.5
    a_({2,4},4)  q_{2,3,4,1}  0.5
    q_{2,3,4,1}  a_({2,4},4)  0.5
    a_({2,4},4)  q_{2,4,1,3}  0.5
    q_{2,4,1,3}  a_({2,4},4)  0.5
    a_({2,4},4)  q_{2,4,3,1}  0.5
    q_{2,4,3,1}  a_({2,4},4)  0.5
    a_({2,4},4)  q_{3,2,4,1}  0.5
    q_{3,2,4,1}  a_({2,4},4)  0.5
    a_({2,4},4)  q_{3,4,2,1}  0.5
    q_{3,4,2,1}  a_({2,4},4)  0.5
    a_({2,4},4)  q_{4,2,1,3}  0.5
    q_{4,2,1,3}  a_({2,4},4)  0.5
    a_({2,4},4)  q_{4,2,3,1}  0.5
    q_{4,2,3,1}  a_({2,4},4)  0.5
    a_({2,4},4)  q_{4,3,2,1}  0.5
    q_{4,3,2,1}  a_({2,4},4)  0.5
    a_({3},3)  q_{2,3,1,4}  0.5
    q_{2,3,1,4}  a_({3},3)  0.5
    a_({3},3)  q_{2,3,4,1}  0.5
    q_{2,3,4,1}  a_({3},3)  0.5
    a_({3},3)  q_{2,4,3,1}  0.5
    q_{2,4,3,1}  a_({3},3)  0.5
    a_({3},3)  q_{3,1,2,4}  0.5
    q_{3,1,2,4}  a_({3},3)  0.5
    a_({3},3)  q_{3,1,4,2}  0.5
    q_{3,1,4,2}  a_({3},3)  0.5
    a_({3},3)  q_{3,2,1,4}  0.5
    q_{3,2,1,4}  a_({3},3)  0.5
    a_({3},3)  q_{3,2,4,1}  0.5
    q_{3,2,4,1}  a_({3},3)  0.5
    a_({3},3)  q_{3,4,1,2}  0.5
    q_{3,4,1,2}  a_({3},3)  0.5
    a_({3},3)  q_{3,4,2,1}  0.5
    q_{3,4,2,1}  a_({3},3)  0.5
    a_({3},3)  q_{4,2,3,1}  0.5
    q_{4,2,3,1}  a_({3},3)  0.5
    a_({3},3)  q_{4,3,1,2}  0.5
    q_{4,3,1,2}  a_({3},3)  0.5
    a_({3},3)  q_{4,3,2,1}  0.5
    q_{4,3,2,1}  a_({3},3)  0.5
    a_({3,4},3)  q_{2,3,4,1}  0.5
    q_{2,3,4,1}  a_({3,4},3)  0.5
    a_({3,4},3)  q_{2,4,3,1}  0.5
    q_{2,4,3,1}  a_({3,4},3)  0.5
    a_({3,4},3)  q_{3,2,4,1}  0.5
    q_{3,2,4,1}  a_({3,4},3)  0.5
    a_({3,4},3)  q_{3,4,1,2}  0.5
    q_{3,4,1,2}  a_({3,4},3)  0.5
    a_({3,4},3)  q_{3,4,2,1}  0.5
    q_{3,4,2,1}  a_({3,4},3)  0.5
    a_({3,4},3)  q_{4,2,3,1}  0.5
    q_{4,2,3,1}  a_({3,4},3)  0.5
    a_({3,4},3)  q_{4,3,1,2}  0.5
    q_{4,3,1,2}  a_({3,4},3)  0.5
    a_({3,4},3)  q_{4,3,2,1}  0.5
    q_{4,3,2,1}  a_({3,4},3)  0.5
    a_({3,4},4)  q_{2,3,4,1}  0.5
    q_{2,3,4,1}  a_({3,4},4)  0.5
    a_({3,4},4)  q_{2,4,3,1}  0.5
    q_{2,4,3,1}  a_({3,4},4)  0.5
    a_({3,4},4)  q_{3,2,4,1}  0.5
    q_{3,2,4,1}  a_({3,4},4)  0.5
    a_({3,4},4)  q_{3,4,1,2}  0.5
    q_{3,4,1,2}  a_({3,4},4)  0.5
    a_({3,4},4)  q_{3,4,2,1}  0.5
    q_{3,4,2,1}  a_({3,4},4)  0.5
    a_({3,4},4)  q_{4,2,3,1}  0.5
    q_{4,2,3,1}  a_({3,4},4)  0.5
    a_({3,4},4)  q_{4,3,1,2}  0.5
    q_{4,3,1,2}  a_({3,4},4)  0.5
    a_({3,4},4)  q_{4,3,2,1}  0.5
    q_{4,3,2,1}  a_({3,4},4)  0.5
    a_({4},4)  q_{2,3,4,1}  0.5
    q_{2,3,4,1}  a_({4},4)  0.5
    a_({4},4)  q_{2,4,1,3}  0.5
    q_{2,4,1,3}  a_({4},4)  0.5
    a_({4},4)  q_{2,4,3,1}  0.5
    q_{2,4,3,1}  a_({4},4)  0.5
    a_({4},4)  q_{3,2,4,1}  0.5
    q_{3,2,4,1}  a_({4},4)  0.5
    a_({4},4)  q_{3,4,1,2}  0.5
    q_{3,4,1,2}  a_({4},4)  0.5
    a_({4},4)  q_{3,4,2,1}  0.5
    q_{3,4,2,1}  a_({4},4)  0.5
    a_({4},4)  q_{4,1,2,3}  0.5
    q_{4,1,2,3}  a_({4},4)  0.5
    a_({4},4)  q_{4,1,3,2}  0.5
    q_{4,1,3,2}  a_({4},4)  0.5
    a_({4},4)  q_{4,2,1,3}  0.5
    q_{4,2,1,3}  a_({4},4)  0.5
    a_({4},4)  q_{4,2,3,1}  0.5
    q_{4,2,3,1}  a_({4},4)  0.5
    a_({4},4)  q_{4,3,1,2}  0.5
    q_{4,3,1,2}  a_({4},4)  0.5
    a_({4},4)  q_{4,3,2,1}  0.5
    q_{4,3,2,1}  a_({4},4)  0.5
QCMATRIX   j=2     
    a_({1},1)  q_{1,2,3,4}  0.5
    q_{1,2,3,4}  a_({1},1)  0.5
    a_({1},1)  q_{1,2,4,3}  0.5
    q_{1,2,4,3}  a_({1},1)  0.5
    a_({1},1)  q_{1,3,2,4}  0.5
    q_{1,3,2,4}  a_({1},1)  0.5
    a_({1},1)  q_{1,3,4,2}  0.5
    q_{1,3,4,2}  a_({1},1)  0.5
    a_({1},1)  q_{1,4,2,3}  0.5
    q_{1,4,2,3}  a_({1},1)  0.5
    a_({1},1)  q_{1,4,3,2}  0.5
    q_{1,4,3,2}  a_({1},1)  0.5
    a_({1},1)  q_{3,1,2,4}  0.5
    q_{3,1,2,4}  a_({1},1)  0.5
    a_({1},1)  q_{3,1,4,2}  0.5
    q_{3,1,4,2}  a_({1},1)  0.5
    a_({1},1)  q_{3,4,1,2}  0.5
    q_{3,4,1,2}  a_({1},1)  0.5
    a_({1},1)  q_{4,1,2,3}  0.5
    q_{4,1,2,3}  a_({1},1)  0.5
    a_({1},1)  q_{4,1,3,2}  0.5
    q_{4,1,3,2}  a_({1},1)  0.5
    a_({1},1)  q_{4,3,1,2}  0.5
    q_{4,3,1,2}  a_({1},1)  0.5
    a_({1,3},1)  q_{1,3,2,4}  0.5
    q_{1,3,2,4}  a_({1,3},1)  0.5
    a_({1,3},1)  q_{1,3,4,2}  0.5
    q_{1,3,4,2}  a_({1,3},1)  0.5
    a_({1,3},1)  q_{1,4,3,2}  0.5
    q_{1,4,3,2}  a_({1,3},1)  0.5
    a_({1,3},1)  q_{3,1,2,4}  0.5
    q_{3,1,2,4}  a_({1,3},1)  0.5
    a_({1,3},1)  q_{3,1,4,2}  0.5
    q_{3,1,4,2}  a_({1,3},1)  0.5
    a_({1,3},1)  q_{3,4,1,2}  0.5
    q_{3,4,1,2}  a_({1,3},1)  0.5
    a_({1,3},1)  q_{4,1,3,2}  0.5
    q_{4,1,3,2}  a_({1,3},1)  0.5
    a_({1,3},1)  q_{4,3,1,2}  0.5
    q_{4,3,1,2}  a_({1,3},1)  0.5
    a_({1,3},3)  q_{1,3,2,4}  0.5
    q_{1,3,2,4}  a_({1,3},3)  0.5
    a_({1,3},3)  q_{1,3,4,2}  0.5
    q_{1,3,4,2}  a_({1,3},3)  0.5
    a_({1,3},3)  q_{1,4,3,2}  0.5
    q_{1,4,3,2}  a_({1,3},3)  0.5
    a_({1,3},3)  q_{3,1,2,4}  0.5
    q_{3,1,2,4}  a_({1,3},3)  0.5
    a_({1,3},3)  q_{3,1,4,2}  0.5
    q_{3,1,4,2}  a_({1,3},3)  0.5
    a_({1,3},3)  q_{3,4,1,2}  0.5
    q_{3,4,1,2}  a_({1,3},3)  0.5
    a_({1,3},3)  q_{4,1,3,2}  0.5
    q_{4,1,3,2}  a_({1,3},3)  0.5
    a_({1,3},3)  q_{4,3,1,2}  0.5
    q_{4,3,1,2}  a_({1,3},3)  0.5
    a_({1,3,4},1)  q_{1,3,4,2}  0.5
    q_{1,3,4,2}  a_({1,3,4},1)  0.5
    a_({1,3,4},1)  q_{1,4,3,2}  0.5
    q_{1,4,3,2}  a_({1,3,4},1)  0.5
    a_({1,3,4},1)  q_{3,1,4,2}  0.5
    q_{3,1,4,2}  a_({1,3,4},1)  0.5
    a_({1,3,4},1)  q_{3,4,1,2}  0.5
    q_{3,4,1,2}  a_({1,3,4},1)  0.5
    a_({1,3,4},1)  q_{4,1,3,2}  0.5
    q_{4,1,3,2}  a_({1,3,4},1)  0.5
    a_({1,3,4},1)  q_{4,3,1,2}  0.5
    q_{4,3,1,2}  a_({1,3,4},1)  0.5
    a_({1,3,4},3)  q_{1,3,4,2}  0.5
    q_{1,3,4,2}  a_({1,3,4},3)  0.5
    a_({1,3,4},3)  q_{1,4,3,2}  0.5
    q_{1,4,3,2}  a_({1,3,4},3)  0.5
    a_({1,3,4},3)  q_{3,1,4,2}  0.5
    q_{3,1,4,2}  a_({1,3,4},3)  0.5
    a_({1,3,4},3)  q_{3,4,1,2}  0.5
    q_{3,4,1,2}  a_({1,3,4},3)  0.5
    a_({1,3,4},3)  q_{4,1,3,2}  0.5
    q_{4,1,3,2}  a_({1,3,4},3)  0.5
    a_({1,3,4},3)  q_{4,3,1,2}  0.5
    q_{4,3,1,2}  a_({1,3,4},3)  0.5
    a_({1,3,4},4)  q_{1,3,4,2}  0.5
    q_{1,3,4,2}  a_({1,3,4},4)  0.5
    a_({1,3,4},4)  q_{1,4,3,2}  0.5
    q_{1,4,3,2}  a_({1,3,4},4)  0.5
    a_({1,3,4},4)  q_{3,1,4,2}  0.5
    q_{3,1,4,2}  a_({1,3,4},4)  0.5
    a_({1,3,4},4)  q_{3,4,1,2}  0.5
    q_{3,4,1,2}  a_({1,3,4},4)  0.5
    a_({1,3,4},4)  q_{4,1,3,2}  0.5
    q_{4,1,3,2}  a_({1,3,4},4)  0.5
    a_({1,3,4},4)  q_{4,3,1,2}  0.5
    q_{4,3,1,2}  a_({1,3,4},4)  0.5
    a_({1,4},1)  q_{1,3,4,2}  0.5
    q_{1,3,4,2}  a_({1,4},1)  0.5
    a_({1,4},1)  q_{1,4,2,3}  0.5
    q_{1,4,2,3}  a_({1,4},1)  0.5
    a_({1,4},1)  q_{1,4,3,2}  0.5
    q_{1,4,3,2}  a_({1,4},1)  0.5
    a_({1,4},1)  q_{3,1,4,2}  0.5
    q_{3,1,4,2}  a_({1,4},1)  0.5
    a_({1,4},1)  q_{3,4,1,2}  0.5
    q_{3,4,1,2}  a_({1,4},1)  0.5
    a_({1,4},1)  q_{4,1,2,3}  0.5
    q_{4,1,2,3}  a_({1,4},1)  0.5
    a_({1,4},1)  q_{4,1,3,2}  0.5
    q_{4,1,3,2}  a_({1,4},1)  0.5
    a_({1,4},1)  q_{4,3,1,2}  0.5
    q_{4,3,1,2}  a_({1,4},1)  0.5
    a_({1,4},4)  q_{1,3,4,2}  0.5
    q_{1,3,4,2}  a_({1,4},4)  0.5
    a_({1,4},4)  q_{1,4,2,3}  0.5
    q_{1,4,2,3}  a_({1,4},4)  0.5
    a_({1,4},4)  q_{1,4,3,2}  0.5
    q_{1,4,3,2}  a_({1,4},4)  0.5
    a_({1,4},4)  q_{3,1,4,2}  0.5
    q_{3,1,4,2}  a_({1,4},4)  0.5
    a_({1,4},4)  q_{3,4,1,2}  0.5
    q_{3,4,1,2}  a_({1,4},4)  0.5
    a_({1,4},4)  q_{4,1,2,3}  0.5
    q_{4,1,2,3}  a_({1,4},4)  0.5
    a_({1,4},4)  q_{4,1,3,2}  0.5
    q_{4,1,3,2}  a_({1,4},4)  0.5
    a_({1,4},4)  q_{4,3,1,2}  0.5
    q_{4,3,1,2}  a_({1,4},4)  0.5
    a_({3},3)  q_{1,3,2,4}  0.5
    q_{1,3,2,4}  a_({3},3)  0.5
    a_({3},3)  q_{1,3,4,2}  0.5
    q_{1,3,4,2}  a_({3},3)  0.5
    a_({3},3)  q_{1,4,3,2}  0.5
    q_{1,4,3,2}  a_({3},3)  0.5
    a_({3},3)  q_{3,1,2,4}  0.5
    q_{3,1,2,4}  a_({3},3)  0.5
    a_({3},3)  q_{3,1,4,2}  0.5
    q_{3,1,4,2}  a_({3},3)  0.5
    a_({3},3)  q_{3,2,1,4}  0.5
    q_{3,2,1,4}  a_({3},3)  0.5
    a_({3},3)  q_{3,2,4,1}  0.5
    q_{3,2,4,1}  a_({3},3)  0.5
    a_({3},3)  q_{3,4,1,2}  0.5
    q_{3,4,1,2}  a_({3},3)  0.5
    a_({3},3)  q_{3,4,2,1}  0.5
    q_{3,4,2,1}  a_({3},3)  0.5
    a_({3},3)  q_{4,1,3,2}  0.5
    q_{4,1,3,2}  a_({3},3)  0.5
    a_({3},3)  q_{4,3,1,2}  0.5
    q_{4,3,1,2}  a_({3},3)  0.5
    a_({3},3)  q_{4,3,2,1}  0.5
    q_{4,3,2,1}  a_({3},3)  0.5
    a_({3,4},3)  q_{1,3,4,2}  0.5
    q_{1,3,4,2}  a_({3,4},3)  0.5
    a_({3,4},3)  q_{1,4,3,2}  0.5
    q_{1,4,3,2}  a_({3,4},3)  0.5
    a_({3,4},3)  q_{3,1,4,2}  0.5
    q_{3,1,4,2}  a_({3,4},3)  0.5
    a_({3,4},3)  q_{3,4,1,2}  0.5
    q_{3,4,1,2}  a_({3,4},3)  0.5
    a_({3,4},3)  q_{3,4,2,1}  0.5
    q_{3,4,2,1}  a_({3,4},3)  0.5
    a_({3,4},3)  q_{4,1,3,2}  0.5
    q_{4,1,3,2}  a_({3,4},3)  0.5
    a_({3,4},3)  q_{4,3,1,2}  0.5
    q_{4,3,1,2}  a_({3,4},3)  0.5
    a_({3,4},3)  q_{4,3,2,1}  0.5
    q_{4,3,2,1}  a_({3,4},3)  0.5
    a_({3,4},4)  q_{1,3,4,2}  0.5
    q_{1,3,4,2}  a_({3,4},4)  0.5
    a_({3,4},4)  q_{1,4,3,2}  0.5
    q_{1,4,3,2}  a_({3,4},4)  0.5
    a_({3,4},4)  q_{3,1,4,2}  0.5
    q_{3,1,4,2}  a_({3,4},4)  0.5
    a_({3,4},4)  q_{3,4,1,2}  0.5
    q_{3,4,1,2}  a_({3,4},4)  0.5
    a_({3,4},4)  q_{3,4,2,1}  0.5
    q_{3,4,2,1}  a_({3,4},4)  0.5
    a_({3,4},4)  q_{4,1,3,2}  0.5
    q_{4,1,3,2}  a_({3,4},4)  0.5
    a_({3,4},4)  q_{4,3,1,2}  0.5
    q_{4,3,1,2}  a_({3,4},4)  0.5
    a_({3,4},4)  q_{4,3,2,1}  0.5
    q_{4,3,2,1}  a_({3,4},4)  0.5
    a_({4},4)  q_{1,3,4,2}  0.5
    q_{1,3,4,2}  a_({4},4)  0.5
    a_({4},4)  q_{1,4,2,3}  0.5
    q_{1,4,2,3}  a_({4},4)  0.5
    a_({4},4)  q_{1,4,3,2}  0.5
    q_{1,4,3,2}  a_({4},4)  0.5
    a_({4},4)  q_{3,1,4,2}  0.5
    q_{3,1,4,2}  a_({4},4)  0.5
    a_({4},4)  q_{3,4,1,2}  0.5
    q_{3,4,1,2}  a_({4},4)  0.5
    a_({4},4)  q_{3,4,2,1}  0.5
    q_{3,4,2,1}  a_({4},4)  0.5
    a_({4},4)  q_{4,1,2,3}  0.5
    q_{4,1,2,3}  a_({4},4)  0.5
    a_({4},4)  q_{4,1,3,2}  0.5
    q_{4,1,3,2}  a_({4},4)  0.5
    a_({4},4)  q_{4,2,1,3}  0.5
    q_{4,2,1,3}  a_({4},4)  0.5
    a_({4},4)  q_{4,2,3,1}  0.5
    q_{4,2,3,1}  a_({4},4)  0.5
    a_({4},4)  q_{4,3,1,2}  0.5
    q_{4,3,1,2}  a_({4},4)  0.5
    a_({4},4)  q_{4,3,2,1}  0.5
    q_{4,3,2,1}  a_({4},4)  0.5
QCMATRIX   j=3     
    a_({1},1)  q_{1,2,3,4}  0.5
    q_{1,2,3,4}  a_({1},1)  0.5
    a_({1},1)  q_{1,2,4,3}  0.5
    q_{1,2,4,3}  a_({1},1)  0.5
    a_({1},1)  q_{1,3,2,4}  0.5
    q_{1,3,2,4}  a_({1},1)  0.5
    a_({1},1)  q_{1,3,4,2}  0.5
    q_{1,3,4,2}  a_({1},1)  0.5
    a_({1},1)  q_{1,4,2,3}  0.5
    q_{1,4,2,3}  a_({1},1)  0.5
    a_({1},1)  q_{1,4,3,2}  0.5
    q_{1,4,3,2}  a_({1},1)  0.5
    a_({1},1)  q_{2,1,3,4}  0.5
    q_{2,1,3,4}  a_({1},1)  0.5
    a_({1},1)  q_{2,1,4,3}  0.5
    q_{2,1,4,3}  a_({1},1)  0.5
    a_({1},1)  q_{2,4,1,3}  0.5
    q_{2,4,1,3}  a_({1},1)  0.5
    a_({1},1)  q_{4,1,2,3}  0.5
    q_{4,1,2,3}  a_({1},1)  0.5
    a_({1},1)  q_{4,1,3,2}  0.5
    q_{4,1,3,2}  a_({1},1)  0.5
    a_({1},1)  q_{4,2,1,3}  0.5
    q_{4,2,1,3}  a_({1},1)  0.5
    a_({1,2},1)  q_{1,2,3,4}  0.5
    q_{1,2,3,4}  a_({1,2},1)  0.5
    a_({1,2},1)  q_{1,2,4,3}  0.5
    q_{1,2,4,3}  a_({1,2},1)  0.5
    a_({1,2},1)  q_{1,4,2,3}  0.5
    q_{1,4,2,3}  a_({1,2},1)  0.5
    a_({1,2},1)  q_{2,1,3,4}  0.5
    q_{2,1,3,4}  a_({1,2},1)  0.5
    a_({1,2},1)  q_{2,1,4,3}  0.5
    q_{2,1,4,3}  a_({1,2},1)  0.5
    a_({1,2},1)  q_{2,4,1,3}  0.5
    q_{2,4,1,3}  a_({1,2},1)  0.5
    a_({1,2},1)  q_{4,1,2,3}  0.5
    q_{4,1,2,3}  a_({1,2},1)  0.5
    a_({1,2},1)  q_{4,2,1,3}  0.5
    q_{4,2,1,3}  a_({1,2},1)  0.5
    a_({1,2},2)  q_{1,2,3,4}  0.5
    q_{1,2,3,4}  a_({1,2},2)  0.5
    a_({1,2},2)  q_{1,2,4,3}  0.5
    q_{1,2,4,3}  a_({1,2},2)  0.5
    a_({1,2},2)  q_{1,4,2,3}  0.5
    q_{1,4,2,3}  a_({1,2},2)  0.5
    a_({1,2},2)  q_{2,1,3,4}  0.5
    q_{2,1,3,4}  a_({1,2},2)  0.5
    a_({1,2},2)  q_{2,1,4,3}  0.5
    q_{2,1,4,3}  a_({1,2},2)  0.5
    a_({1,2},2)  q_{2,4,1,3}  0.5
    q_{2,4,1,3}  a_({1,2},2)  0.5
    a_({1,2},2)  q_{4,1,2,3}  0.5
    q_{4,1,2,3}  a_({1,2},2)  0.5
    a_({1,2},2)  q_{4,2,1,3}  0.5
    q_{4,2,1,3}  a_({1,2},2)  0.5
    a_({1,2,4},1)  q_{1,2,4,3}  0.5
    q_{1,2,4,3}  a_({1,2,4},1)  0.5
    a_({1,2,4},1)  q_{1,4,2,3}  0.5
    q_{1,4,2,3}  a_({1,2,4},1)  0.5
    a_({1,2,4},1)  q_{2,1,4,3}  0.5
    q_{2,1,4,3}  a_({1,2,4},1)  0.5
    a_({1,2,4},1)  q_{2,4,1,3}  0.5
    q_{2,4,1,3}  a_({1,2,4},1)  0.5
    a_({1,2,4},1)  q_{4,1,2,3}  0.5
    q_{4,1,2,3}  a_({1,2,4},1)  0.5
    a_({1,2,4},1)  q_{4,2,1,3}  0.5
    q_{4,2,1,3}  a_({1,2,4},1)  0.5
    a_({1,2,4},2)  q_{1,2,4,3}  0.5
    q_{1,2,4,3}  a_({1,2,4},2)  0.5
    a_({1,2,4},2)  q_{1,4,2,3}  0.5
    q_{1,4,2,3}  a_({1,2,4},2)  0.5
    a_({1,2,4},2)  q_{2,1,4,3}  0.5
    q_{2,1,4,3}  a_({1,2,4},2)  0.5
    a_({1,2,4},2)  q_{2,4,1,3}  0.5
    q_{2,4,1,3}  a_({1,2,4},2)  0.5
    a_({1,2,4},2)  q_{4,1,2,3}  0.5
    q_{4,1,2,3}  a_({1,2,4},2)  0.5
    a_({1,2,4},2)  q_{4,2,1,3}  0.5
    q_{4,2,1,3}  a_({1,2,4},2)  0.5
    a_({1,2,4},4)  q_{1,2,4,3}  0.5
    q_{1,2,4,3}  a_({1,2,4},4)  0.5
    a_({1,2,4},4)  q_{1,4,2,3}  0.5
    q_{1,4,2,3}  a_({1,2,4},4)  0.5
    a_({1,2,4},4)  q_{2,1,4,3}  0.5
    q_{2,1,4,3}  a_({1,2,4},4)  0.5
    a_({1,2,4},4)  q_{2,4,1,3}  0.5
    q_{2,4,1,3}  a_({1,2,4},4)  0.5
    a_({1,2,4},4)  q_{4,1,2,3}  0.5
    q_{4,1,2,3}  a_({1,2,4},4)  0.5
    a_({1,2,4},4)  q_{4,2,1,3}  0.5
    q_{4,2,1,3}  a_({1,2,4},4)  0.5
    a_({1,4},1)  q_{1,2,4,3}  0.5
    q_{1,2,4,3}  a_({1,4},1)  0.5
    a_({1,4},1)  q_{1,4,2,3}  0.5
    q_{1,4,2,3}  a_({1,4},1)  0.5
    a_({1,4},1)  q_{1,4,3,2}  0.5
    q_{1,4,3,2}  a_({1,4},1)  0.5
    a_({1,4},1)  q_{2,1,4,3}  0.5
    q_{2,1,4,3}  a_({1,4},1)  0.5
    a_({1,4},1)  q_{2,4,1,3}  0.5
    q_{2,4,1,3}  a_({1,4},1)  0.5
    a_({1,4},1)  q_{4,1,2,3}  0.5
    q_{4,1,2,3}  a_({1,4},1)  0.5
    a_({1,4},1)  q_{4,1,3,2}  0.5
    q_{4,1,3,2}  a_({1,4},1)  0.5
    a_({1,4},1)  q_{4,2,1,3}  0.5
    q_{4,2,1,3}  a_({1,4},1)  0.5
    a_({1,4},4)  q_{1,2,4,3}  0.5
    q_{1,2,4,3}  a_({1,4},4)  0.5
    a_({1,4},4)  q_{1,4,2,3}  0.5
    q_{1,4,2,3}  a_({1,4},4)  0.5
    a_({1,4},4)  q_{1,4,3,2}  0.5
    q_{1,4,3,2}  a_({1,4},4)  0.5
    a_({1,4},4)  q_{2,1,4,3}  0.5
    q_{2,1,4,3}  a_({1,4},4)  0.5
    a_({1,4},4)  q_{2,4,1,3}  0.5
    q_{2,4,1,3}  a_({1,4},4)  0.5
    a_({1,4},4)  q_{4,1,2,3}  0.5
    q_{4,1,2,3}  a_({1,4},4)  0.5
    a_({1,4},4)  q_{4,1,3,2}  0.5
    q_{4,1,3,2}  a_({1,4},4)  0.5
    a_({1,4},4)  q_{4,2,1,3}  0.5
    q_{4,2,1,3}  a_({1,4},4)  0.5
    a_({2},2)  q_{1,2,3,4}  0.5
    q_{1,2,3,4}  a_({2},2)  0.5
    a_({2},2)  q_{1,2,4,3}  0.5
    q_{1,2,4,3}  a_({2},2)  0.5
    a_({2},2)  q_{1,4,2,3}  0.5
    q_{1,4,2,3}  a_({2},2)  0.5
    a_({2},2)  q_{2,1,3,4}  0.5
    q_{2,1,3,4}  a_({2},2)  0.5
    a_({2},2)  q_{2,1,4,3}  0.5
    q_{2,1,4,3}  a_({2},2)  0.5
    a_({2},2)  q_{2,3,1,4}  0.5
    q_{2,3,1,4}  a_({2},2)  0.5
    a_({2},2)  q_{2,3,4,1}  0.5
    q_{2,3,4,1}  a_({2},2)  0.5
    a_({2},2)  q_{2,4,1,3}  0.5
    q_{2,4,1,3}  a_({2},2)  0.5
    a_({2},2)  q_{2,4,3,1}  0.5
    q_{2,4,3,1}  a_({2},2)  0.5
    a_({2},2)  q_{4,1,2,3}  0.5
    q_{4,1,2,3}  a_({2},2)  0.5
    a_({2},2)  q_{4,2,1,3}  0.5
    q_{4,2,1,3}  a_({2},2)  0.5
    a_({2},2)  q_{4,2,3,1}  0.5
    q_{4,2,3,1}  a_({2},2)  0.5
    a_({2,4},2)  q_{1,2,4,3}  0.5
    q_{1,2,4,3}  a_({2,4},2)  0.5
    a_({2,4},2)  q_{1,4,2,3}  0.5
    q_{1,4,2,3}  a_({2,4},2)  0.5
    a_({2,4},2)  q_{2,1,4,3}  0.5
    q_{2,1,4,3}  a_({2,4},2)  0.5
    a_({2,4},2)  q_{2,4,1,3}  0.5
    q_{2,4,1,3}  a_({2,4},2)  0.5
    a_({2,4},2)  q_{2,4,3,1}  0.5
    q_{2,4,3,1}  a_({2,4},2)  0.5
    a_({2,4},2)  q_{4,1,2,3}  0.5
    q_{4,1,2,3}  a_({2,4},2)  0.5
    a_({2,4},2)  q_{4,2,1,3}  0.5
    q_{4,2,1,3}  a_({2,4},2)  0.5
    a_({2,4},2)  q_{4,2,3,1}  0.5
    q_{4,2,3,1}  a_({2,4},2)  0.5
    a_({2,4},4)  q_{1,2,4,3}  0.5
    q_{1,2,4,3}  a_({2,4},4)  0.5
    a_({2,4},4)  q_{1,4,2,3}  0.5
    q_{1,4,2,3}  a_({2,4},4)  0.5
    a_({2,4},4)  q_{2,1,4,3}  0.5
    q_{2,1,4,3}  a_({2,4},4)  0.5
    a_({2,4},4)  q_{2,4,1,3}  0.5
    q_{2,4,1,3}  a_({2,4},4)  0.5
    a_({2,4},4)  q_{2,4,3,1}  0.5
    q_{2,4,3,1}  a_({2,4},4)  0.5
    a_({2,4},4)  q_{4,1,2,3}  0.5
    q_{4,1,2,3}  a_({2,4},4)  0.5
    a_({2,4},4)  q_{4,2,1,3}  0.5
    q_{4,2,1,3}  a_({2,4},4)  0.5
    a_({2,4},4)  q_{4,2,3,1}  0.5
    q_{4,2,3,1}  a_({2,4},4)  0.5
    a_({4},4)  q_{1,2,4,3}  0.5
    q_{1,2,4,3}  a_({4},4)  0.5
    a_({4},4)  q_{1,4,2,3}  0.5
    q_{1,4,2,3}  a_({4},4)  0.5
    a_({4},4)  q_{1,4,3,2}  0.5
    q_{1,4,3,2}  a_({4},4)  0.5
    a_({4},4)  q_{2,1,4,3}  0.5
    q_{2,1,4,3}  a_({4},4)  0.5
    a_({4},4)  q_{2,4,1,3}  0.5
    q_{2,4,1,3}  a_({4},4)  0.5
    a_({4},4)  q_{2,4,3,1}  0.5
    q_{2,4,3,1}  a_({4},4)  0.5
    a_({4},4)  q_{4,1,2,3}  0.5
    q_{4,1,2,3}  a_({4},4)  0.5
    a_({4},4)  q_{4,1,3,2}  0.5
    q_{4,1,3,2}  a_({4},4)  0.5
    a_({4},4)  q_{4,2,1,3}  0.5
    q_{4,2,1,3}  a_({4},4)  0.5
    a_({4},4)  q_{4,2,3,1}  0.5
    q_{4,2,3,1}  a_({4},4)  0.5
    a_({4},4)  q_{4,3,1,2}  0.5
    q_{4,3,1,2}  a_({4},4)  0.5
    a_({4},4)  q_{4,3,2,1}  0.5
    q_{4,3,2,1}  a_({4},4)  0.5
QCMATRIX   j=4     
    a_({1},1)  q_{1,2,3,4}  0.5
    q_{1,2,3,4}  a_({1},1)  0.5
    a_({1},1)  q_{1,2,4,3}  0.5
    q_{1,2,4,3}  a_({1},1)  0.5
    a_({1},1)  q_{1,3,2,4}  0.5
    q_{1,3,2,4}  a_({1},1)  0.5
    a_({1},1)  q_{1,3,4,2}  0.5
    q_{1,3,4,2}  a_({1},1)  0.5
    a_({1},1)  q_{1,4,2,3}  0.5
    q_{1,4,2,3}  a_({1},1)  0.5
    a_({1},1)  q_{1,4,3,2}  0.5
    q_{1,4,3,2}  a_({1},1)  0.5
    a_({1},1)  q_{2,1,3,4}  0.5
    q_{2,1,3,4}  a_({1},1)  0.5
    a_({1},1)  q_{2,1,4,3}  0.5
    q_{2,1,4,3}  a_({1},1)  0.5
    a_({1},1)  q_{2,3,1,4}  0.5
    q_{2,3,1,4}  a_({1},1)  0.5
    a_({1},1)  q_{3,1,2,4}  0.5
    q_{3,1,2,4}  a_({1},1)  0.5
    a_({1},1)  q_{3,1,4,2}  0.5
    q_{3,1,4,2}  a_({1},1)  0.5
    a_({1},1)  q_{3,2,1,4}  0.5
    q_{3,2,1,4}  a_({1},1)  0.5
    a_({1,2},1)  q_{1,2,3,4}  0.5
    q_{1,2,3,4}  a_({1,2},1)  0.5
    a_({1,2},1)  q_{1,2,4,3}  0.5
    q_{1,2,4,3}  a_({1,2},1)  0.5
    a_({1,2},1)  q_{1,3,2,4}  0.5
    q_{1,3,2,4}  a_({1,2},1)  0.5
    a_({1,2},1)  q_{2,1,3,4}  0.5
    q_{2,1,3,4}  a_({1,2},1)  0.5
    a_({1,2},1)  q_{2,1,4,3}  0.5
    q_{2,1,4,3}  a_({1,2},1)  0.5
    a_({1,2},1)  q_{2,3,1,4}  0.5
    q_{2,3,1,4}  a_({1,2},1)  0.5
    a_({1,2},1)  q_{3,1,2,4}  0.5
    q_{3,1,2,4}  a_({1,2},1)  0.5
    a_({1,2},1)  q_{3,2,1,4}  0.5
    q_{3,2,1,4}  a_({1,2},1)  0.5
    a_({1,2},2)  q_{1,2,3,4}  0.5
    q_{1,2,3,4}  a_({1,2},2)  0.5
    a_({1,2},2)  q_{1,2,4,3}  0.5
    q_{1,2,4,3}  a_({1,2},2)  0.5
    a_({1,2},2)  q_{1,3,2,4}  0.5
    q_{1,3,2,4}  a_({1,2},2)  0.5
    a_({1,2},2)  q_{2,1,3,4}  0.5
    q_{2,1,3,4}  a_({1,2},2)  0.5
    a_({1,2},2)  q_{2,1,4,3}  0.5
    q_{2,1,4,3}  a_({1,2},2)  0.5
    a_({1,2},2)  q_{2,3,1,4}  0.5
    q_{2,3,1,4}  a_({1,2},2)  0.5
    a_({1,2},2)  q_{3,1,2,4}  0.5
    q_{3,1,2,4}  a_({1,2},2)  0.5
    a_({1,2},2)  q_{3,2,1,4}  0.5
    q_{3,2,1,4}  a_({1,2},2)  0.5
    a_({1,2,3},1)  q_{1,2,3,4}  0.5
    q_{1,2,3,4}  a_({1,2,3},1)  0.5
    a_({1,2,3},1)  q_{1,3,2,4}  0.5
    q_{1,3,2,4}  a_({1,2,3},1)  0.5
    a_({1,2,3},1)  q_{2,1,3,4}  0.5
    q_{2,1,3,4}  a_({1,2,3},1)  0.5
    a_({1,2,3},1)  q_{2,3,1,4}  0.5
    q_{2,3,1,4}  a_({1,2,3},1)  0.5
    a_({1,2,3},1)  q_{3,1,2,4}  0.5
    q_{3,1,2,4}  a_({1,2,3},1)  0.5
    a_({1,2,3},1)  q_{3,2,1,4}  0.5
    q_{3,2,1,4}  a_({1,2,3},1)  0.5
    a_({1,2,3},2)  q_{1,2,3,4}  0.5
    q_{1,2,3,4}  a_({1,2,3},2)  0.5
    a_({1,2,3},2)  q_{1,3,2,4}  0.5
    q_{1,3,2,4}  a_({1,2,3},2)  0.5
    a_({1,2,3},2)  q_{2,1,3,4}  0.5
    q_{2,1,3,4}  a_({1,2,3},2)  0.5
    a_({1,2,3},2)  q_{2,3,1,4}  0.5
    q_{2,3,1,4}  a_({1,2,3},2)  0.5
    a_({1,2,3},2)  q_{3,1,2,4}  0.5
    q_{3,1,2,4}  a_({1,2,3},2)  0.5
    a_({1,2,3},2)  q_{3,2,1,4}  0.5
    q_{3,2,1,4}  a_({1,2,3},2)  0.5
    a_({1,2,3},3)  q_{1,2,3,4}  0.5
    q_{1,2,3,4}  a_({1,2,3},3)  0.5
    a_({1,2,3},3)  q_{1,3,2,4}  0.5
    q_{1,3,2,4}  a_({1,2,3},3)  0.5
    a_({1,2,3},3)  q_{2,1,3,4}  0.5
    q_{2,1,3,4}  a_({1,2,3},3)  0.5
    a_({1,2,3},3)  q_{2,3,1,4}  0.5
    q_{2,3,1,4}  a_({1,2,3},3)  0.5
    a_({1,2,3},3)  q_{3,1,2,4}  0.5
    q_{3,1,2,4}  a_({1,2,3},3)  0.5
    a_({1,2,3},3)  q_{3,2,1,4}  0.5
    q_{3,2,1,4}  a_({1,2,3},3)  0.5
    a_({1,3},1)  q_{1,2,3,4}  0.5
    q_{1,2,3,4}  a_({1,3},1)  0.5
    a_({1,3},1)  q_{1,3,2,4}  0.5
    q_{1,3,2,4}  a_({1,3},1)  0.5
    a_({1,3},1)  q_{1,3,4,2}  0.5
    q_{1,3,4,2}  a_({1,3},1)  0.5
    a_({1,3},1)  q_{2,1,3,4}  0.5
    q_{2,1,3,4}  a_({1,3},1)  0.5
    a_({1,3},1)  q_{2,3,1,4}  0.5
    q_{2,3,1,4}  a_({1,3},1)  0.5
    a_({1,3},1)  q_{3,1,2,4}  0.5
    q_{3,1,2,4}  a_({1,3},1)  0.5
    a_({1,3},1)  q_{3,1,4,2}  0.5
    q_{3,1,4,2}  a_({1,3},1)  0.5
    a_({1,3},1)  q_{3,2,1,4}  0.5
    q_{3,2,1,4}  a_({1,3},1)  0.5
    a_({1,3},3)  q_{1,2,3,4}  0.5
    q_{1,2,3,4}  a_({1,3},3)  0.5
    a_({1,3},3)  q_{1,3,2,4}  0.5
    q_{1,3,2,4}  a_({1,3},3)  0.5
    a_({1,3},3)  q_{1,3,4,2}  0.5
    q_{1,3,4,2}  a_({1,3},3)  0.5
    a_({1,3},3)  q_{2,1,3,4}  0.5
    q_{2,1,3,4}  a_({1,3},3)  0.5
    a_({1,3},3)  q_{2,3,1,4}  0.5
    q_{2,3,1,4}  a_({1,3},3)  0.5
    a_({1,3},3)  q_{3,1,2,4}  0.5
    q_{3,1,2,4}  a_({1,3},3)  0.5
    a_({1,3},3)  q_{3,1,4,2}  0.5
    q_{3,1,4,2}  a_({1,3},3)  0.5
    a_({1,3},3)  q_{3,2,1,4}  0.5
    q_{3,2,1,4}  a_({1,3},3)  0.5
    a_({2},2)  q_{1,2,3,4}  0.5
    q_{1,2,3,4}  a_({2},2)  0.5
    a_({2},2)  q_{1,2,4,3}  0.5
    q_{1,2,4,3}  a_({2},2)  0.5
    a_({2},2)  q_{1,3,2,4}  0.5
    q_{1,3,2,4}  a_({2},2)  0.5
    a_({2},2)  q_{2,1,3,4}  0.5
    q_{2,1,3,4}  a_({2},2)  0.5
    a_({2},2)  q_{2,1,4,3}  0.5
    q_{2,1,4,3}  a_({2},2)  0.5
    a_({2},2)  q_{2,3,1,4}  0.5
    q_{2,3,1,4}  a_({2},2)  0.5
    a_({2},2)  q_{2,3,4,1}  0.5
    q_{2,3,4,1}  a_({2},2)  0.5
    a_({2},2)  q_{2,4,1,3}  0.5
    q_{2,4,1,3}  a_({2},2)  0.5
    a_({2},2)  q_{2,4,3,1}  0.5
    q_{2,4,3,1}  a_({2},2)  0.5
    a_({2},2)  q_{3,1,2,4}  0.5
    q_{3,1,2,4}  a_({2},2)  0.5
    a_({2},2)  q_{3,2,1,4}  0.5
    q_{3,2,1,4}  a_({2},2)  0.5
    a_({2},2)  q_{3,2,4,1}  0.5
    q_{3,2,4,1}  a_({2},2)  0.5
    a_({2,3},2)  q_{1,2,3,4}  0.5
    q_{1,2,3,4}  a_({2,3},2)  0.5
    a_({2,3},2)  q_{1,3,2,4}  0.5
    q_{1,3,2,4}  a_({2,3},2)  0.5
    a_({2,3},2)  q_{2,1,3,4}  0.5
    q_{2,1,3,4}  a_({2,3},2)  0.5
    a_({2,3},2)  q_{2,3,1,4}  0.5
    q_{2,3,1,4}  a_({2,3},2)  0.5
    a_({2,3},2)  q_{2,3,4,1}  0.5
    q_{2,3,4,1}  a_({2,3},2)  0.5
    a_({2,3},2)  q_{3,1,2,4}  0.5
    q_{3,1,2,4}  a_({2,3},2)  0.5
    a_({2,3},2)  q_{3,2,1,4}  0.5
    q_{3,2,1,4}  a_({2,3},2)  0.5
    a_({2,3},2)  q_{3,2,4,1}  0.5
    q_{3,2,4,1}  a_({2,3},2)  0.5
    a_({2,3},3)  q_{1,2,3,4}  0.5
    q_{1,2,3,4}  a_({2,3},3)  0.5
    a_({2,3},3)  q_{1,3,2,4}  0.5
    q_{1,3,2,4}  a_({2,3},3)  0.5
    a_({2,3},3)  q_{2,1,3,4}  0.5
    q_{2,1,3,4}  a_({2,3},3)  0.5
    a_({2,3},3)  q_{2,3,1,4}  0.5
    q_{2,3,1,4}  a_({2,3},3)  0.5
    a_({2,3},3)  q_{2,3,4,1}  0.5
    q_{2,3,4,1}  a_({2,3},3)  0.5
    a_({2,3},3)  q_{3,1,2,4}  0.5
    q_{3,1,2,4}  a_({2,3},3)  0.5
    a_({2,3},3)  q_{3,2,1,4}  0.5
    q_{3,2,1,4}  a_({2,3},3)  0.5
    a_({2,3},3)  q_{3,2,4,1}  0.5
    q_{3,2,4,1}  a_({2,3},3)  0.5
    a_({3},3)  q_{1,2,3,4}  0.5
    q_{1,2,3,4}  a_({3},3)  0.5
    a_({3},3)  q_{1,3,2,4}  0.5
    q_{1,3,2,4}  a_({3},3)  0.5
    a_({3},3)  q_{1,3,4,2}  0.5
    q_{1,3,4,2}  a_({3},3)  0.5
    a_({3},3)  q_{2,1,3,4}  0.5
    q_{2,1,3,4}  a_({3},3)  0.5
    a_({3},3)  q_{2,3,1,4}  0.5
    q_{2,3,1,4}  a_({3},3)  0.5
    a_({3},3)  q_{2,3,4,1}  0.5
    q_{2,3,4,1}  a_({3},3)  0.5
    a_({3},3)  q_{3,1,2,4}  0.5
    q_{3,1,2,4}  a_({3},3)  0.5
    a_({3},3)  q_{3,1,4,2}  0.5
    q_{3,1,4,2}  a_({3},3)  0.5
    a_({3},3)  q_{3,2,1,4}  0.5
    q_{3,2,1,4}  a_({3},3)  0.5
    a_({3},3)  q_{3,2,4,1}  0.5
    q_{3,2,4,1}  a_({3},3)  0.5
    a_({3},3)  q_{3,4,1,2}  0.5
    q_{3,4,1,2}  a_({3},3)  0.5
    a_({3},3)  q_{3,4,2,1}  0.5
    q_{3,4,2,1}  a_({3},3)  0.5
ENDATA
